(set-info :smt-lib-version 2.6)
(set-logic QF_SLIA)
(set-info :source |
Generated by: Denghang Hu
Generated on: 2023-03-29
Application: Evaluate string solvers
Target solver: Ostrich, Z3str3, CVC5
Description: The instance consists of:
(1) a regular membership predicate from the real world
(2) a regular membership predicate to sanitize danger letters in javascript such as <,>,&,",'
(3) a lower bound for string length
|)
(set-info :license "https://creativecommons.org/licenses/by/4.0/")
(set-info :category "industrial")
(set-info :status unknown)
        ;test regex ^\n*[fF][iI][lL][eE]\u{3a}\u{2f}\u{2f}[^\n]{400}
(declare-const X String)
(assert (str.in_re X (re.++ (str.to_re "") (re.++ (re.* (str.to_re "\u{0a}")) (re.++ (re.union (str.to_re "f") (str.to_re "F")) (re.++ (re.union (str.to_re "i") (str.to_re "I")) (re.++ (re.union (str.to_re "l") (str.to_re "L")) (re.++ (re.union (str.to_re "e") (str.to_re "E")) (re.++ (str.to_re "\u{3a}") (re.++ (str.to_re "\u{2f}") (re.++ (str.to_re "\u{2f}") ((_ re.loop 400 400) (re.diff re.allchar (str.to_re "\u{0a}"))))))))))))))
; sanitize danger characters:  < > ' " &
(assert (not (str.in_re X (re.++ re.all (re.union (str.to_re "\u{3c}") (str.to_re "\u{3e}") (str.to_re "\u{27}") (str.to_re "\u{22}") (str.to_re "\u{26}")) re.all))))
(assert (< 50 (str.len X)))
(check-sat)
(exit)
